c t wmc
c file mc2022_track2_045.cnf
p cnf 78 416
-49 -68 25 -6 -48 0
-31 42 -19 71 -50 0
5 -26 -36 -49 -68 0
-35 22 -21 54 27 0
-24 78 51 -45 -63 0
-9 10 -37 43 -2 0
-6 -48 72 58 62 0
-6 48 -72 58 62 0
24 -78 -51 -45 63 0
-54 27 39 -31 -42 0
11 60 14 9 -10 0
-35 -22 21 -54 -27 0
-9 -10 -37 43 2 0
43 -2 20 5 26 0
70 -32 38 33 -3 0
-43 -2 -20 5 26 0
59 -40 -46 -69 -1 0
45 -63 15 -17 77 0
-52 66 -18 70 32 0
-35 -22 21 54 27 0
70 32 38 33 3 0
17 77 61 -7 -30 0
-17 77 61 7 -30 0
7 -30 -73 52 66 0
5 -26 -36 49 68 0
-47 -64 67 59 40 0
-58 62 -56 16 -76 0
-69 -1 57 -75 -44 0
75 -44 34 -12 -41 0
-58 62 56 16 76 0
-45 -63 15 -17 -77 0
43 -2 -20 5 -26 0
-75 -44 -34 -12 -41 0
-69 1 57 75 -44 0
52 66 18 -70 -32 0
-31 42 19 -71 -50 0
-45 -63 15 17 77 0
-43 2 -20 5 -26 0
-59 40 46 69 -1 0
-43 -2 20 -5 26 0
52 -66 -18 70 32 0
31 -42 -19 71 -50 0
9 -10 -37 43 -2 0
-16 76 -53 -55 28 0
-31 -42 -19 -71 -50 0
69 -1 57 -75 44 0
75 -44 -34 12 -41 0
-71 50 -65 24 -78 0
-11 -60 -14 9 10 0
-59 -40 46 -69 -1 0
35 22 21 -54 -27 0
75 44 34 12 -41 0
59 -40 -46 69 1 0
52 66 18 70 32 0
-5 26 36 49 -68 0
-12 41 74 35 -22 0
31 -42 19 -71 -50 0
11 60 14 -9 10 0
6 48 72 -58 -62 0
-29 4 -13 -47 -64 0
-7 -30 -73 52 -66 0
-59 40 46 -69 1 0
24 -78 -51 45 -63 0
58 -62 56 -16 -76 0
7 -30 73 52 -66 0
-59 40 -46 -69 -1 0
-7 30 73 -52 66 0
12 41 -74 35 -22 0
55 -28 8 -29 4 0
75 44 -34 -12 -41 0
-49 -68 -25 -6 48 0
54 27 -39 -31 -42 0
47 64 67 -59 -40 0
7 30 -73 52 -66 0
-71 -50 65 24 -78 0
12 -41 74 35 -22 0
-11 -60 -14 -9 -10 0
-52 66 18 70 -32 0
-17 -77 61 7 30 0
17 -77 -61 -7 -30 0
-75 44 34 -12 -41 0
71 -50 -65 24 -78 0
-33 3 23 11 60 0
-75 -44 34 12 -41 0
29 4 -13 47 -64 0
59 40 -46 -69 1 0
35 -22 21 -54 27 0
16 76 53 -55 28 0
-52 -66 18 -70 -32 0
-35 22 21 54 -27 0
58 62 56 16 -76 0
-9 -10 37 -43 2 0
12 41 74 -35 -22 0
9 10 -37 -43 -2 0
-6 48 72 -58 62 0
75 -44 -34 -12 41 0
55 -28 -8 -29 -4 0
5 -26 36 -49 68 0
-54 -27 39 -31 42 0
69 -1 57 75 -44 0
71 50 65 -24 78 0
-70 -32 38 33 3 0
58 62 56 -16 76 0
-5 26 -36 49 68 0
33 3 -23 -11 -60 0
-52 -66 18 70 32 0
-58 62 56 -16 -76 0
7 30 73 -52 -66 0
31 42 -19 71 50 0
-24 78 -51 -45 63 0
6 -48 72 58 -62 0
-17 77 -61 -7 -30 0
71 -50 65 -24 -78 0
-7 30 -73 52 66 0
69 -1 -57 -75 -44 0
-54 27 -39 31 -42 0
-59 40 -46 69 1 0
-49 68 25 -6 48 0
17 -77 -61 7 30 0
-24 -78 51 -45 63 0
29 -4 13 47 -64 0
-7 30 73 52 -66 0
49 68 -25 6 -48 0
9 -10 -37 -43 2 0
-5 -26 -36 -49 68 0
-24 78 51 45 63 0
-45 63 15 17 -77 0
49 -68 -25 6 48 0
12 41 74 35 22 0
-12 -41 74 -35 -22 0
-17 -77 -61 7 -30 0
-75 44 -34 -12 41 0
33 3 23 11 -60 0
-70 32 38 33 -3 0
-54 27 -39 -31 42 0
-45 -63 -15 -17 77 0
-70 -32 38 -33 -3 0
-9 10 37 43 2 0
24 78 -51 45 63 0
52 -66 -18 -70 -32 0
-29 -4 -13 47 -64 0
52 -66 18 70 -32 0
-58 -62 -56 16 76 0
49 -68 25 -6 48 0
-7 30 -73 -52 -66 0
7 -30 -73 -52 -66 0
12 41 -74 -35 22 0
54 27 -39 31 42 0
45 -63 -15 17 77 0
-5 -26 36 -49 -68 0
-9 10 -37 -43 2 0
71 50 -65 24 78 0
-35 -22 -21 -54 27 0
-58 62 -56 -16 76 0
6 -48 -72 58 62 0
-17 77 -61 7 30 0
-11 -60 14 -9 10 0
16 76 53 55 -28 0
-52 -66 -18 70 -32 0
11 60 -14 9 10 0
7 30 -73 -52 66 0
24 78 -51 -45 -63 0
-75 44 34 12 41 0
58 -62 -56 16 -76 0
6 48 -72 -58 62 0
-6 -48 -72 58 -62 0
16 76 -53 55 28 0
70 32 38 -33 -3 0
9 10 37 -43 2 0
33 3 23 -11 60 0
-11 60 14 -9 -10 0
31 42 19 71 -50 0
9 -10 37 43 2 0
-43 -2 20 5 -26 0
-6 -48 72 -58 -62 0
9 -10 37 -43 -2 0
-47 64 67 59 -40 0
71 -50 65 24 78 0
-55 -28 8 29 4 0
-24 78 -51 45 -63 0
58 -62 56 16 76 0
45 63 15 17 77 0
17 -77 61 7 -30 0
-17 77 61 -7 30 0
54 -27 -39 -31 42 0
6 -48 -72 -58 -62 0
-71 50 65 24 78 0
-45 63 -15 -17 -77 0
45 63 15 -17 -77 0
-71 -50 65 -24 78 0
6 48 -72 58 -62 0
31 42 -19 -71 -50 0
54 27 39 31 -42 0
-55 -28 -8 29 -4 0
33 3 -23 11 60 0
71 50 -65 -24 -78 0
70 -32 -38 33 3 0
5 26 -36 -49 68 0
54 -27 39 31 42 0
55 28 -8 -29 4 0
43 2 -20 -5 -26 0
11 -60 14 -9 -10 0
-54 27 39 31 42 0
-16 -76 53 -55 28 0
69 1 57 75 44 0
-16 76 53 -55 -28 0
-33 -3 23 -11 60 0
-70 -32 -38 33 -3 0
75 44 34 -12 41 0
-59 -40 46 69 1 0
-58 -62 56 16 -76 0
-45 63 15 -17 77 0
-49 -68 -25 6 -48 0
-71 -50 -65 24 78 0
24 78 51 45 -63 0
45 -63 15 17 -77 0
-43 2 20 -5 -26 0
-47 -64 -67 59 -40 0
-12 41 74 -35 22 0
54 27 39 -31 42 0
-69 -1 -57 75 -44 0
31 42 19 -71 50 0
-12 -41 -74 -35 22 0
59 40 -46 69 -1 0
49 68 25 6 48 0
31 -42 -19 -71 50 0
-31 -42 -19 71 50 0
55 28 8 -29 -4 0
-71 -50 -65 -24 -78 0
-75 -44 -34 12 41 0
-45 63 -15 17 77 0
70 32 -38 -33 3 0
70 -32 -38 -33 -3 0
-70 -32 -38 -33 3 0
-7 -30 73 52 66 0
16 -76 -53 55 -28 0
-59 -40 -46 69 -1 0
-29 4 13 47 -64 0
-59 -40 -46 -69 1 0
-33 -3 -23 11 60 0
6 -48 72 -58 62 0
17 77 61 7 30 0
52 66 -18 70 -32 0
33 -3 -23 -11 60 0
71 -50 -65 -24 78 0
58 -62 -56 -16 76 0
75 -44 34 12 41 0
29 4 -13 -47 64 0
-70 32 -38 33 3 0
-35 22 21 -54 27 0
47 64 -67 -59 40 0
16 -76 -53 -55 28 0
5 26 -36 49 -68 0
45 -63 -15 -17 -77 0
-69 -1 57 75 44 0
-33 3 23 -11 -60 0
71 50 65 24 -78 0
12 -41 -74 35 22 0
-69 1 57 -75 44 0
11 -60 14 9 10 0
-43 2 20 5 26 0
29 -4 -13 47 64 0
-33 3 -23 11 -60 0
70 -32 38 -33 3 0
43 2 -20 5 26 0
45 63 -15 17 -77 0
-55 -28 -8 -29 4 0
-29 4 13 -47 64 0
-54 -27 -39 31 42 0
-35 22 -21 -54 -27 0
35 -22 -21 -54 -27 0
-69 1 -57 -75 -44 0
-58 -62 56 -16 76 0
45 63 -15 -17 77 0
-11 60 -14 -9 10 0
16 76 -53 -55 -28 0
29 4 13 -47 -64 0
-24 -78 51 45 -63 0
35 -22 -21 54 27 0
55 -28 8 29 -4 0
-6 -48 -72 -58 62 0
12 -41 74 -35 22 0
59 40 46 69 1 0
24 -78 51 45 63 0
59 -40 46 69 -1 0
55 -28 -8 29 4 0
-11 -60 14 9 -10 0
35 22 -21 -54 27 0
-16 -76 53 55 -28 0
-5 26 -36 -49 -68 0
58 62 -56 -16 -76 0
-58 -62 -56 -16 -76 0
-11 60 14 9 10 0
-55 28 8 -29 4 0
-29 -4 13 -47 -64 0
58 62 -56 16 76 0
-35 -22 -21 54 -27 0
24 78 51 -45 63 0
43 -2 -20 -5 26 0
-12 41 -74 35 22 0
47 -64 67 -59 40 0
-29 -4 -13 -47 64 0
49 -68 -25 -6 -48 0
17 -77 61 -7 30 0
-7 -30 73 -52 -66 0
54 -27 -39 31 -42 0
47 -64 67 59 -40 0
-55 28 -8 29 4 0
-29 4 -13 47 64 0
69 1 57 -75 -44 0
33 -3 23 -11 -60 0
-16 76 53 55 28 0
-71 50 -65 -24 78 0
-55 -28 8 -29 -4 0
7 30 73 52 66 0
-6 48 -72 -58 -62 0
59 -40 46 -69 1 0
33 -3 -23 11 -60 0
70 32 -38 33 -3 0
-55 28 8 29 -4 0
69 1 -57 75 -44 0
47 64 67 59 40 0
5 -26 36 49 -68 0
-16 -76 -53 -55 -28 0
69 1 -57 -75 44 0
-16 76 -53 55 -28 0
-70 32 38 -33 3 0
-47 -64 67 -59 -40 0
-5 -26 -36 49 -68 0
55 28 -8 29 -4 0
33 -3 23 11 60 0
24 -78 51 -45 -63 0
29 -4 13 -47 64 0
16 -76 53 55 28 0
-69 1 -57 75 44 0
-47 -64 -67 -59 40 0
17 77 -61 -7 30 0
-6 48 72 58 -62 0
75 44 -34 12 41 0
47 64 -67 59 -40 0
-17 -77 -61 -7 30 0
-24 -78 -51 -45 -63 0
-31 42 19 71 50 0
35 22 21 54 27 0
-49 -68 25 6 48 0
43 -2 20 -5 -26 0
-49 68 -25 -6 -48 0
35 -22 21 54 -27 0
-47 64 -67 59 40 0
-33 3 -23 -11 60 0
-43 2 -20 -5 26 0
59 40 46 -69 -1 0
52 66 -18 -70 32 0
-47 64 -67 -59 -40 0
-52 -66 -18 -70 32 0
5 26 36 -49 -68 0
-31 -42 19 71 -50 0
69 -1 -57 75 44 0
6 48 72 58 62 0
-69 -1 -57 -75 44 0
-54 -27 -39 -31 -42 0
54 -27 39 -31 -42 0
55 28 8 29 4 0
47 -64 -67 -59 -40 0
-52 66 -18 -70 -32 0
-12 41 -74 -35 -22 0
11 -60 -14 9 -10 0
-24 -78 -51 45 63 0
9 10 -37 43 2 0
43 2 20 -5 26 0
-47 64 67 -59 40 0
31 -42 19 71 50 0
49 68 -25 -6 48 0
-55 28 -8 -29 -4 0
-49 68 25 6 -48 0
11 60 -14 -9 -10 0
9 10 37 43 -2 0
-16 -76 -53 55 28 0
-70 32 -38 -33 -3 0
29 4 13 47 64 0
-54 -27 39 31 -42 0
7 -30 73 -52 66 0
43 2 20 5 -26 0
49 -68 25 6 -48 0
35 22 -21 54 -27 0
47 -64 -67 59 40 0
-12 -41 -74 35 -22 0
49 68 25 -6 -48 0
-75 -44 34 -12 41 0
-5 26 36 -49 68 0
-29 -4 13 47 64 0
-43 -2 -20 -5 -26 0
-7 -30 -73 -52 66 0
-33 -3 23 11 -60 0
16 -76 53 -55 -28 0
5 26 36 49 68 0
-52 66 18 -70 32 0
12 -41 -74 -35 -22 0
29 -4 -13 -47 -64 0
-33 -3 -23 -11 -60 0
-75 44 -34 12 -41 0
-45 -63 -15 17 -77 0
-9 -10 37 43 -2 0
-71 50 65 -24 -78 0
-11 60 -14 9 -10 0
-17 -77 61 -7 -30 0
11 -60 -14 -9 10 0
-12 -41 74 35 22 0
-49 68 -25 6 48 0
-5 -26 36 49 68 0
-9 -10 -37 -43 -2 0
-31 -42 19 -71 50 0
-9 10 37 -43 -2 0
52 -66 18 -70 32 0
-31 42 -19 -71 50 0
17 77 -61 7 -30 0
c p weight 1 0.99678026 0
c p weight -1 0.00321974 0
c p weight 2 0.98926565 0
c p weight -2 0.01073435 0
c p weight 3 0.98837563 0
c p weight -3 0.01162437 0
c p weight 4 0.98740011 0
c p weight -4 0.01259989 0
c p weight 5 0.98392099 0
c p weight -5 0.01607901 0
c p weight 6 0.99412465 0
c p weight -6 0.00587535 0
c p weight 7 0.99916113 0
c p weight -7 0.00083887 0
c p weight 8 0.99814199 0
c p weight -8 0.00185801 0
c p weight 9 0.98858594 0
c p weight -9 0.01141406 0
c p weight 10 0.99690898 0
c p weight -10 0.00309102 0
c p weight 11 0.99724623 0
c p weight -11 0.00275377 0
c p weight 12 0.99270105 0
c p weight -12 0.00729895 0
c p weight 13 0.98379608 0
c p weight -13 0.01620392 0
c p weight 14 0.0077098 0
c p weight -14 0.9922902 0
c p weight 15 0.99727443 0
c p weight -15 0.00272557 0
c p weight 16 0.98066865 0
c p weight -16 0.01933135 0
c p weight 17 0.98656951 0
c p weight -17 0.01343049 0
c p weight 18 0.98292244 0
c p weight -18 0.01707756 0
c p weight 19 0.00662284 0
c p weight -19 0.99337716 0
c p weight 20 0.00960842 0
c p weight -20 0.99039158 0
c p weight 21 0.98209784 0
c p weight -21 0.01790216 0
c p weight 22 0.99210435 0
c p weight -22 0.00789565 0
c p weight 23 0.0122123 0
c p weight -23 0.9877877 0
c p weight 24 0.9865489 0
c p weight -24 0.0134511 0
c p weight 25 0.99590997 0
c p weight -25 0.00409003 0
c p weight 26 0.98186449 0
c p weight -26 0.01813551 0
c p weight 27 0.99417161 0
c p weight -27 0.00582839 0
c p weight 28 0.98672157 0
c p weight -28 0.01327843 0
c p weight 29 0.99071294 0
c p weight -29 0.00928706 0
c p weight 30 0.98779174 0
c p weight -30 0.01220826 0
c p weight 31 0.99859666 0
c p weight -31 0.00140334 0
c p weight 32 0.98116436 0
c p weight -32 0.01883564 0
c p weight 33 0.98796368 0
c p weight -33 0.01203632 0
c p weight 34 0.0112423 0
c p weight -34 0.9887577 0
c p weight 35 0.99408362 0
c p weight -35 0.00591638 0
c p weight 36 0.98009564 0
c p weight -36 0.01990436 0
c p weight 37 0.01271788 0
c p weight -37 0.98728212 0
c p weight 38 0.98393382 0
c p weight -38 0.01606618 0
c p weight 39 0.00387123 0
c p weight -39 0.99612877 0
c p weight 40 0.99888894 0
c p weight -40 0.00111106 0
c p weight 41 0.99746151 0
c p weight -41 0.00253849 0
c p weight 42 0.99186962 0
c p weight -42 0.00813038 0
c p weight 43 0.99458118 0
c p weight -43 0.00541882 0
c p weight 44 0.98971725 0
c p weight -44 0.01028275 0
c p weight 45 0.99523452 0
c p weight -45 0.00476548 0
c p weight 46 0.98193909 0
c p weight -46 0.01806091 0
c p weight 47 0.99554579 0
c p weight -47 0.00445421 0
c p weight 48 0.98277202 0
c p weight -48 0.01722798 0
c p weight 49 0.99710989 0
c p weight -49 0.00289011 0
c p weight 50 0.99142678 0
c p weight -50 0.00857322 0
c p weight 51 0.01138742 0
c p weight -51 0.98861258 0
c p weight 52 0.98551807 0
c p weight -52 0.01448193 0
c p weight 53 0.01997264 0
c p weight -53 0.98002736 0
c p weight 54 0.99418163 0
c p weight -54 0.00581837 0
c p weight 55 0.98333369 0
c p weight -55 0.01666631 0
c p weight 56 0.00590295 0
c p weight -56 0.99409705 0
c p weight 57 0.98891329 0
c p weight -57 0.01108671 0
c p weight 58 0.98344139 0
c p weight -58 0.01655861 0
c p weight 59 0.99127318 0
c p weight -59 0.00872682 0
c p weight 60 0.98532081 0
c p weight -60 0.01467919 0
c p weight 61 0.99558701 0
c p weight -61 0.00441299 0
c p weight 62 0.99195832 0
c p weight -62 0.00804168 0
c p weight 63 0.98559619 0
c p weight -63 0.01440381 0
c p weight 64 0.9957687 0
c p weight -64 0.0042313 0
c p weight 65 6.367e-05 0
c p weight -65 0.99993633 0
c p weight 66 0.99715094 0
c p weight -66 0.00284906 0
c p weight 67 0.99837784 0
c p weight -67 0.00162216 0
c p weight 68 0.99172295 0
c p weight -68 0.00827705 0
c p weight 69 0.98030529 0
c p weight -69 0.01969471 0
c p weight 70 0.98518046 0
c p weight -70 0.01481954 0
c p weight 71 0.98802131 0
c p weight -71 0.01197869 0
c p weight 72 0.99910511 0
c p weight -72 0.00089489 0
c p weight 73 0.98057766 0
c p weight -73 0.01942234 0
c p weight 74 0.99446887 0
c p weight -74 0.00553113 0
c p weight 75 0.99212702 0
c p weight -75 0.00787298 0
c p weight 76 0.99997266 0
c p weight -76 2.734e-05 0
c p weight 77 0.98814374 0
c p weight -77 0.01185626 0
c p weight 78 0.98982205 0
c p weight -78 0.01017795 0
